p cnf 196 1
196 0
w 1 0.842518
w 2 1 1
w 2 -1 0
w 3 2 0.512068
w 3 -2 0.655039
w 4 3 1
w 4 -3 0
w 5 4 1
w 5 -4 0
w 6 5 1
w 6 -5 0
w 7 6 0.274687
w 7 -6 0.135755
w 8 7 1
w 8 -7 0
w 9 8 1
w 9 -8 0
w 10 9 0.33981
w 10 -9 0.346791
w 11 10 0.12159
w 11 -10 0.458487
w 12 11 0
w 12 -11 1
w 13 12 1
w 13 -12 0
w 14 13 0.478172
w 14 -13 0.0172829
w 15 1 0
w 15 -1 1
w 16 15 2 0.0816614
w 16 15 -2 0.633984
w 16 -15 2 0.696134
w 16 -15 -2 0.590879
w 17 16 3 0.849786
w 17 16 -3 0.32596
w 17 -16 3 0.727722
w 17 -16 -3 0.744378
w 18 17 4 0
w 18 17 -4 1
w 18 -17 4 0
w 18 -17 -4 1
w 19 18 5 0
w 19 18 -5 1
w 19 -18 5 1
w 19 -18 -5 1
w 20 19 6 0.370035
w 20 19 -6 0.78726
w 20 -19 6 0.0197449
w 20 -19 -6 0.522357
w 21 20 7 0.97458
w 21 20 -7 0.000529223
w 21 -20 7 0.979307
w 21 -20 -7 0.544173
w 22 21 8 0.934754
w 22 21 -8 0.625834
w 22 -21 8 0.613459
w 22 -21 -8 0.630888
w 23 22 9 1
w 23 22 -9 0
w 23 -22 9 0
w 23 -22 -9 0
w 24 23 10 0
w 24 23 -10 0
w 24 -23 10 0
w 24 -23 -10 1
w 25 24 11 1
w 25 24 -11 0
w 25 -24 11 1
w 25 -24 -11 0
w 26 25 12 1
w 26 25 -12 0
w 26 -25 12 1
w 26 -25 -12 0
w 27 26 13 0.265903
w 27 26 -13 0.805071
w 27 -26 13 0.917069
w 27 -26 -13 0.810075
w 28 27 14 0.851824
w 28 27 -14 0.43591
w 28 -27 14 0.398005
w 28 -27 -14 0.482712
w 29 15 0
w 29 -15 1
w 30 29 16 0.195296
w 30 29 -16 0.260902
w 30 -29 16 0.188438
w 30 -29 -16 0.338616
w 31 30 17 0
w 31 30 -17 0
w 31 -30 17 1
w 31 -30 -17 0
w 32 31 18 0.388651
w 32 31 -18 0.53703
w 32 -31 18 0.988889
w 32 -31 -18 0.660229
w 33 32 19 0.964626
w 33 32 -19 0.951551
w 33 -32 19 0.623757
w 33 -32 -19 0.902387
w 34 33 20 0
w 34 33 -20 1
w 34 -33 20 0
w 34 -33 -20 1
w 35 34 21 1
w 35 34 -21 1
w 35 -34 21 0
w 35 -34 -21 0
w 36 35 22 0
w 36 35 -22 1
w 36 -35 22 0
w 36 -35 -22 0
w 37 36 23 0
w 37 36 -23 0
w 37 -36 23 1
w 37 -36 -23 1
w 38 37 24 0
w 38 37 -24 0
w 38 -37 24 0
w 38 -37 -24 1
w 39 38 25 1
w 39 38 -25 0
w 39 -38 25 1
w 39 -38 -25 0
w 40 39 26 1
w 40 39 -26 1
w 40 -39 26 0
w 40 -39 -26 1
w 41 40 27 0
w 41 40 -27 0
w 41 -40 27 1
w 41 -40 -27 1
w 42 41 28 1
w 42 41 -28 1
w 42 -41 28 0
w 42 -41 -28 1
w 43 29 1
w 43 -29 0
w 44 43 30 1
w 44 43 -30 0
w 44 -43 30 0
w 44 -43 -30 0
w 45 44 31 1
w 45 44 -31 0
w 45 -44 31 1
w 45 -44 -31 0
w 46 45 32 1
w 46 45 -32 1
w 46 -45 32 0
w 46 -45 -32 0
w 47 46 33 1
w 47 46 -33 0
w 47 -46 33 1
w 47 -46 -33 0
w 48 47 34 0.983677
w 48 47 -34 0.558017
w 48 -47 34 0.0308542
w 48 -47 -34 0.081821
w 49 48 35 0.330219
w 49 48 -35 0.491322
w 49 -48 35 0.126953
w 49 -48 -35 0.9354
w 50 49 36 1
w 50 49 -36 0
w 50 -49 36 1
w 50 -49 -36 0
w 51 50 37 1
w 51 50 -37 1
w 51 -50 37 0
w 51 -50 -37 0
w 52 51 38 0
w 52 51 -38 0
w 52 -51 38 0
w 52 -51 -38 1
w 53 52 39 0.911154
w 53 52 -39 0.0574214
w 53 -52 39 0.616944
w 53 -52 -39 0.91275
w 54 53 40 0.46581
w 54 53 -40 0.896428
w 54 -53 40 0.384895
w 54 -53 -40 0.496665
w 55 54 41 0.308444
w 55 54 -41 0.826884
w 55 -54 41 0.469571
w 55 -54 -41 0.435396
w 56 55 42 0.0203684
w 56 55 -42 0.0233137
w 56 -55 42 0.232962
w 56 -55 -42 0.511587
w 57 43 1
w 57 -43 0
w 58 57 44 1
w 58 57 -44 0
w 58 -57 44 1
w 58 -57 -44 0
w 59 58 45 1
w 59 58 -45 0
w 59 -58 45 1
w 59 -58 -45 1
w 60 59 46 0.89634
w 60 59 -46 0.774539
w 60 -59 46 0.752073
w 60 -59 -46 0.723218
w 61 60 47 1
w 61 60 -47 0
w 61 -60 47 0
w 61 -60 -47 1
w 62 61 48 1
w 62 61 -48 1
w 62 -61 48 1
w 62 -61 -48 0
w 63 62 49 1
w 63 62 -49 0
w 63 -62 49 1
w 63 -62 -49 1
w 64 63 50 0
w 64 63 -50 0
w 64 -63 50 1
w 64 -63 -50 1
w 65 64 51 0.263901
w 65 64 -51 0.643988
w 65 -64 51 0.712431
w 65 -64 -51 0.102819
w 66 65 52 0.551754
w 66 65 -52 0.99916
w 66 -65 52 0.576123
w 66 -65 -52 0.303828
w 67 66 53 0
w 67 66 -53 1
w 67 -66 53 0
w 67 -66 -53 0
w 68 67 54 1
w 68 67 -54 0
w 68 -67 54 1
w 68 -67 -54 1
w 69 68 55 0.974265
w 69 68 -55 0.00271003
w 69 -68 55 0.420363
w 69 -68 -55 0.194954
w 70 69 56 0
w 70 69 -56 0
w 70 -69 56 0
w 70 -69 -56 1
w 71 57 0
w 71 -57 1
w 72 71 58 1
w 72 71 -58 0
w 72 -71 58 1
w 72 -71 -58 0
w 73 72 59 1
w 73 72 -59 0
w 73 -72 59 1
w 73 -72 -59 1
w 74 73 60 0.164625
w 74 73 -60 0.347339
w 74 -73 60 0.362931
w 74 -73 -60 0.411671
w 75 74 61 0
w 75 74 -61 0
w 75 -74 61 1
w 75 -74 -61 1
w 76 75 62 1
w 76 75 -62 1
w 76 -75 62 1
w 76 -75 -62 0
w 77 76 63 0.159139
w 77 76 -63 0.512626
w 77 -76 63 0.87969
w 77 -76 -63 0.422651
w 78 77 64 1
w 78 77 -64 0
w 78 -77 64 1
w 78 -77 -64 0
w 79 78 65 0.24676
w 79 78 -65 0.858005
w 79 -78 65 0.757816
w 79 -78 -65 0.580895
w 80 79 66 1
w 80 79 -66 0
w 80 -79 66 1
w 80 -79 -66 0
w 81 80 67 1
w 81 80 -67 0
w 81 -80 67 0
w 81 -80 -67 1
w 82 81 68 0.152796
w 82 81 -68 0.28321
w 82 -81 68 0.0241266
w 82 -81 -68 0.832685
w 83 82 69 1
w 83 82 -69 1
w 83 -82 69 0
w 83 -82 -69 0
w 84 83 70 1
w 84 83 -70 1
w 84 -83 70 0
w 84 -83 -70 0
w 85 71 0
w 85 -71 1
w 86 85 72 0.0458124
w 86 85 -72 0.497176
w 86 -85 72 0.547644
w 86 -85 -72 0.697671
w 87 86 73 1
w 87 86 -73 1
w 87 -86 73 1
w 87 -86 -73 0
w 88 87 74 1
w 88 87 -74 0
w 88 -87 74 0
w 88 -87 -74 1
w 89 88 75 0
w 89 88 -75 1
w 89 -88 75 1
w 89 -88 -75 0
w 90 89 76 1
w 90 89 -76 0
w 90 -89 76 0
w 90 -89 -76 1
w 91 90 77 1
w 91 90 -77 1
w 91 -90 77 0
w 91 -90 -77 1
w 92 91 78 1
w 92 91 -78 1
w 92 -91 78 1
w 92 -91 -78 0
w 93 92 79 0
w 93 92 -79 1
w 93 -92 79 0
w 93 -92 -79 1
w 94 93 80 1
w 94 93 -80 0
w 94 -93 80 0
w 94 -93 -80 1
w 95 94 81 0
w 95 94 -81 1
w 95 -94 81 1
w 95 -94 -81 1
w 96 95 82 1
w 96 95 -82 0
w 96 -95 82 0
w 96 -95 -82 1
w 97 96 83 1
w 97 96 -83 0
w 97 -96 83 0
w 97 -96 -83 0
w 98 97 84 0.648002
w 98 97 -84 0.58599
w 98 -97 84 0.535168
w 98 -97 -84 0.396124
w 99 85 0
w 99 -85 1
w 100 99 86 0
w 100 99 -86 1
w 100 -99 86 0
w 100 -99 -86 0
w 101 100 87 0
w 101 100 -87 1
w 101 -100 87 0
w 101 -100 -87 0
w 102 101 88 1
w 102 101 -88 0
w 102 -101 88 0
w 102 -101 -88 0
w 103 102 89 0
w 103 102 -89 1
w 103 -102 89 0
w 103 -102 -89 0
w 104 103 90 0.987658
w 104 103 -90 0.862088
w 104 -103 90 0.447037
w 104 -103 -90 0.963227
w 105 104 91 0
w 105 104 -91 0
w 105 -104 91 1
w 105 -104 -91 0
w 106 105 92 1
w 106 105 -92 1
w 106 -105 92 0
w 106 -105 -92 1
w 107 106 93 1
w 107 106 -93 0
w 107 -106 93 0
w 107 -106 -93 0
w 108 107 94 0.566652
w 108 107 -94 0.635701
w 108 -107 94 0.286395
w 108 -107 -94 0.93408
w 109 108 95 0
w 109 108 -95 0
w 109 -108 95 1
w 109 -108 -95 1
w 110 109 96 1
w 110 109 -96 0
w 110 -109 96 1
w 110 -109 -96 1
w 111 110 97 0
w 111 110 -97 0
w 111 -110 97 0
w 111 -110 -97 1
w 112 111 98 1
w 112 111 -98 1
w 112 -111 98 1
w 112 -111 -98 0
w 113 99 0.607998
w 113 -99 0.609117
w 114 113 100 1
w 114 113 -100 0
w 114 -113 100 0
w 114 -113 -100 0
w 115 114 101 1
w 115 114 -101 1
w 115 -114 101 0
w 115 -114 -101 0
w 116 115 102 0
w 116 115 -102 0
w 116 -115 102 0
w 116 -115 -102 1
w 117 116 103 1
w 117 116 -103 1
w 117 -116 103 0
w 117 -116 -103 1
w 118 117 104 1
w 118 117 -104 1
w 118 -117 104 0
w 118 -117 -104 1
w 119 118 105 0.615684
w 119 118 -105 0.216082
w 119 -118 105 0.577948
w 119 -118 -105 0.213457
w 120 119 106 1
w 120 119 -106 0
w 120 -119 106 1
w 120 -119 -106 0
w 121 120 107 0
w 121 120 -107 1
w 121 -120 107 0
w 121 -120 -107 1
w 122 121 108 0.0304292
w 122 121 -108 0.887645
w 122 -121 108 0.726295
w 122 -121 -108 0.794649
w 123 122 109 0
w 123 122 -109 1
w 123 -122 109 0
w 123 -122 -109 1
w 124 123 110 0
w 124 123 -110 1
w 124 -123 110 0
w 124 -123 -110 0
w 125 124 111 0
w 125 124 -111 0
w 125 -124 111 0
w 125 -124 -111 1
w 126 125 112 1
w 126 125 -112 1
w 126 -125 112 1
w 126 -125 -112 0
w 127 113 1
w 127 -113 0
w 128 127 114 0
w 128 127 -114 1
w 128 -127 114 1
w 128 -127 -114 1
w 129 128 115 0.272633
w 129 128 -115 0.691359
w 129 -128 115 0.673874
w 129 -128 -115 0.277938
w 130 129 116 0
w 130 129 -116 1
w 130 -129 116 1
w 130 -129 -116 1
w 131 130 117 0.58118
w 131 130 -117 0.977353
w 131 -130 117 0.274593
w 131 -130 -117 0.122958
w 132 131 118 0
w 132 131 -118 1
w 132 -131 118 1
w 132 -131 -118 1
w 133 132 119 0
w 133 132 -119 1
w 133 -132 119 0
w 133 -132 -119 1
w 134 133 120 0
w 134 133 -120 1
w 134 -133 120 0
w 134 -133 -120 0
w 135 134 121 1
w 135 134 -121 0
w 135 -134 121 0
w 135 -134 -121 0
w 136 135 122 0
w 136 135 -122 0
w 136 -135 122 0
w 136 -135 -122 1
w 137 136 123 0
w 137 136 -123 1
w 137 -136 123 0
w 137 -136 -123 1
w 138 137 124 1
w 138 137 -124 0
w 138 -137 124 0
w 138 -137 -124 0
w 139 138 125 1
w 139 138 -125 0
w 139 -138 125 0
w 139 -138 -125 1
w 140 139 126 0
w 140 139 -126 1
w 140 -139 126 0
w 140 -139 -126 0
w 141 127 1
w 141 -127 0
w 142 141 128 1
w 142 141 -128 0
w 142 -141 128 1
w 142 -141 -128 0
w 143 142 129 1
w 143 142 -129 1
w 143 -142 129 1
w 143 -142 -129 0
w 144 143 130 1
w 144 143 -130 0
w 144 -143 130 1
w 144 -143 -130 1
w 145 144 131 1
w 145 144 -131 1
w 145 -144 131 1
w 145 -144 -131 0
w 146 145 132 1
w 146 145 -132 0
w 146 -145 132 1
w 146 -145 -132 1
w 147 146 133 0
w 147 146 -133 0
w 147 -146 133 0
w 147 -146 -133 1
w 148 147 134 0
w 148 147 -134 1
w 148 -147 134 0
w 148 -147 -134 0
w 149 148 135 0
w 149 148 -135 1
w 149 -148 135 1
w 149 -148 -135 0
w 150 149 136 0.883881
w 150 149 -136 0.0501154
w 150 -149 136 0.179057
w 150 -149 -136 0.967675
w 151 150 137 1
w 151 150 -137 1
w 151 -150 137 1
w 151 -150 -137 0
w 152 151 138 0.884618
w 152 151 -138 0.646726
w 152 -151 138 0.122189
w 152 -151 -138 0.74924
w 153 152 139 1
w 153 152 -139 1
w 153 -152 139 1
w 153 -152 -139 0
w 154 153 140 0.467688
w 154 153 -140 0.858024
w 154 -153 140 0.954664
w 154 -153 -140 0.862659
w 155 141 0.13701
w 155 -141 0.458298
w 156 155 142 0
w 156 155 -142 1
w 156 -155 142 1
w 156 -155 -142 0
w 157 156 143 1
w 157 156 -143 0
w 157 -156 143 0
w 157 -156 -143 0
w 158 157 144 1
w 158 157 -144 1
w 158 -157 144 0
w 158 -157 -144 1
w 159 158 145 0.216827
w 159 158 -145 0.462901
w 159 -158 145 0.31813
w 159 -158 -145 0.802598
w 160 159 146 0
w 160 159 -146 1
w 160 -159 146 0
w 160 -159 -146 0
w 161 160 147 0.123992
w 161 160 -147 0.526315
w 161 -160 147 0.753273
w 161 -160 -147 0.261002
w 162 161 148 0.290434
w 162 161 -148 0.12533
w 162 -161 148 0.215947
w 162 -161 -148 0.592537
w 163 162 149 0.497396
w 163 162 -149 0.0736978
w 163 -162 149 0.589424
w 163 -162 -149 0.0865424
w 164 163 150 0
w 164 163 -150 0
w 164 -163 150 1
w 164 -163 -150 0
w 165 164 151 0
w 165 164 -151 1
w 165 -164 151 0
w 165 -164 -151 0
w 166 165 152 0
w 166 165 -152 1
w 166 -165 152 0
w 166 -165 -152 1
w 167 166 153 0.574501
w 167 166 -153 0.151932
w 167 -166 153 0.704674
w 167 -166 -153 0.835503
w 168 167 154 1
w 168 167 -154 1
w 168 -167 154 0
w 168 -167 -154 1
w 169 155 0.849888
w 169 -155 0.661344
w 170 169 156 1
w 170 169 -156 1
w 170 -169 156 0
w 170 -169 -156 0
w 171 170 157 0
w 171 170 -157 1
w 171 -170 157 0
w 171 -170 -157 0
w 172 171 158 0
w 172 171 -158 0
w 172 -171 158 1
w 172 -171 -158 1
w 173 172 159 0
w 173 172 -159 0
w 173 -172 159 1
w 173 -172 -159 1
w 174 173 160 1
w 174 173 -160 1
w 174 -173 160 1
w 174 -173 -160 0
w 175 174 161 0
w 175 174 -161 1
w 175 -174 161 0
w 175 -174 -161 0
w 176 175 162 0.513273
w 176 175 -162 0.101303
w 176 -175 162 0.212056
w 176 -175 -162 0.36529
w 177 176 163 0
w 177 176 -163 1
w 177 -176 163 0
w 177 -176 -163 0
w 178 177 164 0
w 178 177 -164 0
w 178 -177 164 0
w 178 -177 -164 1
w 179 178 165 0
w 179 178 -165 1
w 179 -178 165 1
w 179 -178 -165 1
w 180 179 166 0
w 180 179 -166 0
w 180 -179 166 1
w 180 -179 -166 1
w 181 180 167 0.502353
w 181 180 -167 0.645987
w 181 -180 167 0.360631
w 181 -180 -167 0.079195
w 182 181 168 0.294741
w 182 181 -168 0.592468
w 182 -181 168 0.0388212
w 182 -181 -168 0.506797
w 183 169 0.424677
w 183 -169 0.945588
w 184 183 170 0.542947
w 184 183 -170 0.776729
w 184 -183 170 0.224278
w 184 -183 -170 0.159622
w 185 184 171 0.498839
w 185 184 -171 0.236664
w 185 -184 171 0.551496
w 185 -184 -171 0.0785037
w 186 185 172 0
w 186 185 -172 1
w 186 -185 172 1
w 186 -185 -172 1
w 187 186 173 1
w 187 186 -173 0
w 187 -186 173 1
w 187 -186 -173 0
w 188 187 174 1
w 188 187 -174 0
w 188 -187 174 1
w 188 -187 -174 1
w 189 188 175 0.0886996
w 189 188 -175 0.724639
w 189 -188 175 0.707799
w 189 -188 -175 0.513376
w 190 189 176 1
w 190 189 -176 1
w 190 -189 176 0
w 190 -189 -176 1
w 191 190 177 0
w 191 190 -177 1
w 191 -190 177 1
w 191 -190 -177 0
w 192 191 178 1
w 192 191 -178 0
w 192 -191 178 0
w 192 -191 -178 0
w 193 192 179 0.563656
w 193 192 -179 0.228949
w 193 -192 179 0.361151
w 193 -192 -179 0.126125
w 194 193 180 0
w 194 193 -180 1
w 194 -193 180 0
w 194 -193 -180 1
w 195 194 181 1
w 195 194 -181 0
w 195 -194 181 0
w 195 -194 -181 0
w 196 195 182 1
w 196 195 -182 1
w 196 -195 182 0
w 196 -195 -182 0